0
112,135
4
2,16,17,18,25,31,42,46,55,75,84,86,87,94,105,114,132,136,160,161,165,170,171
10
11
48,58,79,99,145,176
23
24
26
32
111,177
57,107
1,2,15,19,43,44,75,125,127,146,161,166,168
3,51
48
8,20,27,33,45,76,93,138,140
113,152
68,102,109,144,163,175
36,38,59,70,133,149
5,56,148,150
51
52
50,60
54
14
128
58
62
34,53,103,156
56,150,151,179
68,102,109,144,154,163
67
69
85,88
182
72
95,141
74
79
81
129,137
9,63
5,56,150,179
83
39,40,173
134,155
91
117,124
96
97
98
99
100
153,167,169
28,29,61,64,82,118,130,147,157
49,139
107
6,108
113
115
92,110,122
117
119
120
123
124
126
66,142
131
158
139
32,73
22,47,68,102,109,144,163
13,21,30,35,71,181
145
77,78,90
81,162
159
10,23
22,47,102,106,109,144,163
164
101,178
49,143
22,47,80,102,109,144,163
172
174
12,56,150,179
41,116
58,79,145
176
7,180
37,65,89,104,121
98,115
